s td 193 20 293
b 1 1 98 177 182 220 271 276
b 2 3 181 273
b 3 11 21 65 126 140 225 273
b 4 19 29 75 189 223 258 275
b 5 44 46 287
b 6 13 50 141
b 7 28 58 127
b 8 13 66 141
b 9 4 30 35 39 67 165 280
b 10 68 152 292
b 11 8 72 131 247 278 283 289
b 12 78 176 289
b 13 40 45 83 86 110 204 277
b 14 85 200 220
b 15 82 101 251
b 16 163 178 277
b 17 97 169 275
b 18 28 127 173
b 19 36 184 262
b 20 42 60 175 197 236 287 290
b 21 79 82 99 116 192 203 292
b 22 152 205 292
b 23 6 114 138 143 154 227 262
b 24 30 106 240
b 25 16 222 290
b 26 18 63 99
b 27 54 131 230
b 28 10 23 127 261
b 29 31 141 150 270
b 30 55 80 103 292
b 31 76 92 152 207
b 32 28 74 129 228
b 33 7 13 206 208
b 34 4 13 39 40 41 42 45 52 60 73 141 218 226 285
b 35 13 39 41 45 52 60 73 89 141 218 226 285
b 36 13 41 52 73 89 141 150 218 226 285
b 37 13 41 52 73 89 141 150 218 226 270
b 38 13 41 52 73 89 150 208 218 226 270
b 39 7 13 41 52 73 89 150 208 218 270
b 40 7 41 52 73 150 180 208 218 270
b 41 4 14 40 42 141
b 42 4 13 39 40 41 42 45 52 60 62 73 110 128 136 141 175 218 226 280
b 43 4 13 39 40 41 42 45 60 62 73 110 128 136 141 175 218 226 280 290
b 44 4 13 39 40 41 42 45 60 62 110 128 136 141 204 218 226 280 290
b 45 4 13 39 40 41 42 45 60 62 86 110 128 136 141 204 218 226 277
b 46 4 13 39 40 42 45 60 86 104 110 128 136 141 204 218 277
b 47 15 40 45 60 86 104 110 128 136 204 277
b 48 15 60 104 110 136 204 233 277
b 49 15 110 136 204 233 266
b 50 15 113 136 204 233 266
b 51 4 13 39 40 41 42 45 60 62 73 128 136 141 175 226 236 287 290
b 52 4 13 39 40 42 45 60 73 128 136 141 175 236 268 287 290
b 53 42 60 128 136 175 236 260 268 287 290
b 54 136 175 257 260 268 287 290
b 55 32 136 257 260 268 287 290
b 56 32 120 136 221 257 260 290
b 57 4 13 39 40 41 42 45 52 60 62 110 128 136 141 165 175 226 280
b 58 4 13 30 35 39 40 41 42 45 52 60 62 128 136 141 165 226 280
b 59 4 13 30 35 39 40 42 45 52 60 128 136 141 165 217 280
b 60 4 30 35 39 128 136 165 217 263 280
b 61 30 136 165 194 217 263 280
b 62 124 136 165 194 263 280
b 63 71 124 136 194 263 280
b 64 4 13 39 40 42 45 60 128 141 226 282
b 65 13 39 45 60 248
b 66 17 77 84 99 112 121 126 145 167 182 187
b 67 60 77 99 112 121 126 145 167 182 187
b 68 99 112 126 182 187 254
b 69 60 99 112 126 182 187
b 70 20 114 152 223 278
b 71 19 75 114 143 146 147 152 189 196 202 214 223 258 275 278 292
b 72 19 75 146 147 152 189 196 202 214 223 258 275 278 292
b 73 19 75 97 146 147 189 214 223 258 275 292
b 74 19 75 97 100 146 147 189 214 223 258 275
b 75 75 100 147 214 242 255 258 275
b 76 12 214 242 255 275
b 77 75 100 147 242 255 256 258
b 78 8 19 75 109 114 143 146 147 152 189 196 202 214 223 258 275 278 292
b 79 8 143 189 272 292
b 80 8 109 114 143 146 152 189 223 274 278 292
b 81 8 19 75 109 114 119 143 146 147 152 189 196 202 214 223 243 258 278 292
b 82 8 19 75 109 114 119 134 143 152 189 196 214 223 243 258 278 292
b 83 8 80 109 114 119 134 143 152 189 196 223 243 278 292
b 84 8 80 143 156 189 292
b 85 76 80 109 114 119 134 152 196 223 243 278 292
b 86 76 114 152 223 259 278
b 87 76 80 109 119 134 152 196 207 243 292
b 88 76 80 103 109 119 134 196 207 243 292
b 89 76 80 103 119 134 196 207 243 279
b 90 8 75 109 114 119 131 138 143 146 147 152 189 196 202 223 243 258 278 292
b 91 8 75 109 114 119 131 138 143 146 147 152 154 189 196 202 223 262 278 292
b 92 6 8 75 114 119 131 138 143 146 147 152 154 189 196 223 262 278 292
b 93 6 8 114 119 130 138 143 146 147 152 154 189 223 262 278 292
b 94 6 114 130 138 143 146 147 154 172 262
b 95 6 130 138 147 171 172 262
b 96 6 138 147 171 172 229
b 97 6 88 147 171 172 229
b 98 8 109 114 131 138 143 146 147 152 189 196 202 223 243 258 278 283 289 292
b 99 8 114 131 138 143 146 147 152 189 196 223 243 247 258 278 283 289 292
b 100 8 114 131 143 146 147 152 189 223 243 247 278 283 288 289 292
b 101 8 131 146 147 210 247 278 283 288 289
b 102 131 147 158 166 210 247 288 289
b 103 105 158 166 288 289
b 104 131 147 158 166 210 246 247
b 105 22 65 90 98 116 232
b 106 65 90 98 116 161 232 233 239 252 253
b 107 51 65 90 98 116 161 186 232 239 253
b 108 51 65 90 98 116 161 232 233 239 252 253
b 109 2 26 59 204 280 290
b 110 2 27 59 148 153 188 204 241 280 290
b 111 2 27 59 153 168 188 204 241 244 280 290
b 112 6 33 48 75 102 125 131 170 191 199 291
b 113 6 69 75 102 131 191
b 114 6 48 75 102 125 131 132 191 199 291
b 115 6 48 75 102 125 131 170 191 199 291
b 116 6 75 102 125 131 170 191 199 291
b 117 5 11 28 65 79 126 127 137 140 155 159 160 177 192 215 225 271 273 292
b 118 5 28 43 65 79 99 116 126 127 137 140 155 159 160 177 192 215 225 271 292
b 119 5 28 43 64 79 99 116 127 137 140 155 159 160 177 192 215 225 271 292
b 120 5 28 43 64 79 99 116 127 140 155 160 177 192 225 228 271 292
b 121 5 28 43 64 79 99 116 127 140 155 160 228 271 286 292
b 122 5 23 28 43 79 127 140 155 160 228 271 286
b 123 5 23 28 43 127 155 160 228 261 286
b 124 5 23 28 43 74 155 160 228 261 286
b 125 23 43 74 155 160 216 228 261 286
b 126 23 79 118 127 140 271
b 127 28 56 177 192 225 228
b 128 5 28 64 79 82 99 116 127 137 140 159 160 177 192 215 225 271 292
b 129 64 79 82 99 116 137 159 164 192 292
b 130 64 82 99 116 137 139 164
b 131 99 116 137 139 151 164 237
b 132 99 115 116 137 151 164 237
b 133 5 28 43 65 79 98 99 116 126 127 137 140 159 160 177 192 215 225 233 271
b 134 5 28 43 79 98 99 126 127 137 140 159 160 177 182 192 215 225 233 271
b 135 5 28 43 79 98 127 137 140 159 160 177 182 192 215 220 225 271 276
b 136 28 43 79 98 127 137 140 159 177 182 192 220 224 225 271 276
b 137 98 137 159 177 182 220 224 269 271 276
b 138 98 137 182 220 224 269 281
b 139 98 137 182 249 269 281
b 140 98 107 137 249 269 281
b 141 34 79 127 140 271
b 142 28 57 177 192 225
b 143 11 28 65 79 126 127 137 140 155 159 177 192 225 264 271 273 292
b 144 11 65 126 137 140 159 225 231 264 273 292
b 145 65 97 126 137 231 264 273 292
b 146 65 97 126 137 209 231
b 147 5 28 79 127 140 159 162 177 192 225 271
b 148 47 91 110 165 175 185
b 149 24 37 91 95 110 149 157 165 175 185 245
b 150 24 37 91 110 149 165 175 185 234 245
b 151 91 110 149 165 175 185 234 245
b 152 9 38 81 111 135 138 193 198 213 247 258
b 153 9 38 81 138 193 198 213 219 247 258
b 154 9 138 193 195 247 258
b 155 9 138 193 198 213 219 247 258
b 156 11 25 140 181 225 231
b 157 6 36 49 114 130 138 143 154 262
b 158 42 44 60 175 211 236 268 287 290
b 159 61 64 99 116 286 292
b 160 6 70 119 130 138 154
b 161 87 131 243 247 283 288
b 162 88 93 147 171 172 179 229
b 163 19 94 97 100 189 223
b 164 35 52 96 165 217 280
b 165 4 30 35 39 106 165 217 235 280
b 166 86 104 108 110 204 218
b 167 97 117 137 190 201 209 231
b 168 73 122 175 236 268 290
b 169 107 123 137 142 249 269 281
b 170 71 124 133 136 194 263 265
b 171 15 113 136 144 233 266 284
b 172 6 49 114 130 138 143 154 172 262
b 173 8 174 176 210 278 283
b 174 8 131 176 210 247 278 283 288 289
b 175 40 45 86 104 110 178 204 267 277
b 176 11 65 126 140 181 225 231 264 273
b 177 65 97 137 190 209 231
b 178 43 98 182 183 224 276
b 179 4 30 35 39 165 217 235 263 280
b 180 98 177 182 200 212 220 224 271 276
b 181 131 147 158 166 210 230 246
b 182 11 65 126 155 238 264
b 183 79 164 192 250 251 292
b 184 64 79 82 99 116 164 192 251 292
b 185 63 99 115 137 151 164 237
b 186 98 177 182 212 220 224 269 271 276
b 187 19 75 134 214 258 293
b 188 53 75 100 147 242 255 256
b 189 120 136 221 222 257 260 290
b 190 42 60 175 211 236 260 268 287 290
b 191 15 40 45 86 104 110 204 267 277
b 192 97 275 292
b 193 60 99 126 182 233
1 135
2 176
3 117
4 71
5 158
6 34
7 117
8 34
9 58
10 71
11 99
12 174
13 45
14 180
15 184
16 175
17 192
18 117
19 157
20 51
21 128
22 71
23 92
24 165
25 189
26 185
27 181
28 123
29 37
30 88
31 87
32 124
33 39
34 35
34 41
34 42
34 65
35 36
36 37
37 38
38 39
39 40
42 43
42 57
42 64
43 44
43 51
44 111
44 45
45 46
46 166
46 47
47 191
47 48
48 193
48 49
49 50
50 171
51 52
52 168
52 53
53 190
53 54
54 55
55 56
56 189
57 151
57 58
58 59
59 164
59 60
60 179
60 61
61 62
62 63
63 170
66 67
67 69
68 69
69 193
70 71
71 78
71 72
72 73
73 192
73 74
74 163
74 75
75 76
75 77
77 188
78 79
78 80
78 81
81 82
81 90
82 187
82 83
83 84
83 85
85 86
85 87
87 88
88 89
90 91
90 98
91 92
92 116
92 93
93 160
93 94
94 172
94 95
95 96
96 97
97 162
98 99
99 155
99 100
100 161
100 101
101 174
101 102
102 103
102 104
104 181
105 106
106 108
106 133
107 108
109 111
110 111
112 115
113 116
114 115
115 116
117 118
117 141
117 142
117 143
117 147
118 119
118 133
119 120
119 128
120 121
120 127
121 159
121 122
122 123
122 126
123 124
124 125
128 129
129 184
129 130
130 131
131 132
132 185
133 134
134 193
134 135
135 136
136 178
136 137
137 186
137 138
138 139
139 140
140 169
143 182
143 144
144 176
144 145
145 192
145 146
146 177
148 151
149 150
150 151
152 153
153 155
154 155
156 176
157 172
158 190
165 179
167 177
173 174
175 191
180 186
183 184
